c CNF formula (!p1) ^ (p1 v !p7 v !p3 v p2) ^ (p4 v !p2 v p5) ^ (p3) ^ (!p5 v p6) ^ (p4) ^ (!p6 v !p4 v p9) ^ (!p9 v !p7 v !p8) ^ (p2) ^ (!p8 v p2 v p10 v !p7 v p1) ^ (p10 v !p4 v !p1 v !p7) ^ (!p10 v p9) ^ (p10) ^ (!p9 v p5) ^ (!p4 v p3 v !p7) ^ (!p9) ^ (!p1 v !p2 v p6) ^ (!p3)
p cnf 10 18
-1 0
1 -7 -3 2 0
4 -2 5 0
3 0
-5 6 0
4 0
-6 -4 9 0
-9 -7 -8 0
2 0
-8 2 10 -7 1 0
10 -4 -1 -7 0
-10 9 0
10 0
-9 5 0
-4 3 -7 0
-9 0
-1 -2 6 0
-3 0